p cnf 7230 17
-6069 -6070 0
-5295 -5903 6062 0
-3310 -5933 -6063 0
3310 -6064 0
6067 6068 0
5939 -6068 0
-5939 -6067 0
-5937 6066 0
6065 -6066 0
5937 -6065 0
6063 6064 0
5933 -6064 0
-5319 -5945 6070 0
-6061 -6062 0
6061 6062 0
5945 -6070 0
5319 -6070 0
